
  32    1
  10

   0   0  14 2 3 4 5 6 7 8 10 11 12 13 16 17 24 
   6   1   6 31 29 23 21 19 9 
   4   2   4 30 22 15 9 
   2   2   7 31 28 27 22 21 20 18 
   6   2   6 29 28 27 26 23 15 
   8   2   6 30 29 27 26 20 19 
   9   2   5 26 22 21 20 14 
   3   2   5 27 26 22 21 20 
   9   1   4 28 27 20 18 
   9   2   3 27 26 15 
   9   1   3 27 26 20 
  10   1   3 27 26 20 
   7   1   3 26 21 20 
   1   3   3 29 27 25 
   6   2   2 21 20 
   1   1   2 30 21 
   2   1   2 28 20 
   1   4   2 26 25 
  10   2   2 28 25 
   5   2   1 25 
   1   2   1 25 
   1   3   1 25 
   5   2   1 25 
   5   3   1 28 
   5   1   1 32
   9   1   1 32
   4   2   1 32
   7   4   1 32
   9   4   1 32
   6   3   1 32
   3   1   1 32
   0   0   0 
